/* Objective function */
min: tf;

/* Variable bounds */
arco_i1: t1>=ti+0;
arco_13: t3>=t1+6;
arco_3f: tf>=t3+2;
arco_i4: t4>=ti+0;
arco_43: t3>=t4+9;
arco_45: t5>=t4+9;
arco_53: t3>=t5+4;
arco_5f: tf>=t5+4;
arco_i6: t6>=ti+0;
arco_67: t7>=t6+5;
arco_74: t4>=t7+6;
arco_78: t8>=t7+6;
arco_85: t5>=t8+4;
arco_89: t9>=t8+4;
arco_9f: tf>=t9+2;
arco_610: t10>=t6+5;
arco_108: t8>=t10+8;
arco_1011: t11>=t10+8;
arco_119: t9>=t11+7;

